3	130
22	119
23	586
42	498
62	230
101	57
102	17
103	36
122	88
123	33
141	8
143	83
161	14
162	38
163	39
182	16
201	1
202	27
203	1
221	0
222	3
223	9
242	2
243	1
262	1
263	5
282	0
283	3
301	0
302	1
303	2
322	0
323	0
342	0
343	0
362	0
363	0
382	0
383	0
400	0
402	0
403	0
423	0
442	0
443	0
462	0
463	0
482	0
483	0
503	0
522	0
523	0
543	0
563	0
583	0
602	0
603	0
623	0
643	0
663	0
683	0
703	0
743	0
783	0
803	0
823	0
883	0
943	0
963	0
1103	0
